c *********************************
c * Circuit generated by BenCGen
c *
c * CarrySelectAdder_14_14_14_InOut_G4T
c *
c * Ports with 1 gate(s): 22
c * Ports with 2 gate(s): 168
c * Ports with 4 gate(s): 4
c * Total gates: 194
c *********************************
p cnf 222 616
1 45 0
-1 -45 0
1 -44 0
45 -44 0
-1 -45 44 0
44 62 0
-44 -62 0
1 15 -48 0
-1 15 48 0
1 -15 48 0
-1 -15 -48 0
48 44 -29 0
-48 44 29 0
48 -44 29 0
-48 -44 -29 0
44 -49 0
48 -49 0
-44 -48 49 0
15 -50 0
1 -50 0
-15 -1 50 0
-49 47 0
-50 47 0
49 50 -47 0
2 16 -52 0
-2 16 52 0
2 -16 52 0
-2 -16 -52 0
52 47 -30 0
-52 47 30 0
52 -47 30 0
-52 -47 -30 0
47 -53 0
52 -53 0
-47 -52 53 0
16 -54 0
2 -54 0
-16 -2 54 0
-53 51 0
-54 51 0
53 54 -51 0
3 17 -56 0
-3 17 56 0
3 -17 56 0
-3 -17 -56 0
56 51 -31 0
-56 51 31 0
56 -51 31 0
-56 -51 -31 0
51 -57 0
56 -57 0
-51 -56 57 0
17 -58 0
3 -58 0
-17 -3 58 0
-57 55 0
-58 55 0
57 58 -55 0
4 18 -59 0
-4 18 59 0
4 -18 59 0
-4 -18 -59 0
59 55 -32 0
-59 55 32 0
59 -55 32 0
-59 -55 -32 0
55 -60 0
59 -60 0
-55 -59 60 0
18 -61 0
4 -61 0
-18 -4 61 0
-60 46 0
-61 46 0
60 61 -46 0
5 19 -73 0
-5 19 73 0
5 -19 73 0
-5 -19 -73 0
73 44 -63 0
-73 44 63 0
73 -44 63 0
-73 -44 -63 0
44 -74 0
73 -74 0
-44 -73 74 0
19 -75 0
5 -75 0
-19 -5 75 0
-74 72 0
-75 72 0
74 75 -72 0
6 20 -77 0
-6 20 77 0
6 -20 77 0
-6 -20 -77 0
77 72 -64 0
-77 72 64 0
77 -72 64 0
-77 -72 -64 0
72 -78 0
77 -78 0
-72 -77 78 0
20 -79 0
6 -79 0
-20 -6 79 0
-78 76 0
-79 76 0
78 79 -76 0
7 21 -81 0
-7 21 81 0
7 -21 81 0
-7 -21 -81 0
81 76 -65 0
-81 76 65 0
81 -76 65 0
-81 -76 -65 0
76 -82 0
81 -82 0
-76 -81 82 0
21 -83 0
7 -83 0
-21 -7 83 0
-82 80 0
-83 80 0
82 83 -80 0
8 22 -84 0
-8 22 84 0
8 -22 84 0
-8 -22 -84 0
84 80 -66 0
-84 80 66 0
84 -80 66 0
-84 -80 -66 0
80 -85 0
84 -85 0
-80 -84 85 0
22 -86 0
8 -86 0
-22 -8 86 0
-85 71 0
-86 71 0
85 86 -71 0
73 -87 0
77 -87 0
81 -87 0
84 -87 0
-73 -77 -81 -84 87 0
86 -88 0
-86 88 0
5 19 -91 0
-5 19 91 0
5 -19 91 0
-5 -19 -91 0
91 62 -67 0
-91 62 67 0
91 -62 67 0
-91 -62 -67 0
62 -92 0
91 -92 0
-62 -91 92 0
19 -93 0
5 -93 0
-19 -5 93 0
-92 90 0
-93 90 0
92 93 -90 0
6 20 -95 0
-6 20 95 0
6 -20 95 0
-6 -20 -95 0
95 90 -68 0
-95 90 68 0
95 -90 68 0
-95 -90 -68 0
90 -96 0
95 -96 0
-90 -95 96 0
20 -97 0
6 -97 0
-20 -6 97 0
-96 94 0
-97 94 0
96 97 -94 0
7 21 -99 0
-7 21 99 0
7 -21 99 0
-7 -21 -99 0
99 94 -69 0
-99 94 69 0
99 -94 69 0
-99 -94 -69 0
94 -100 0
99 -100 0
-94 -99 100 0
21 -101 0
7 -101 0
-21 -7 101 0
-100 98 0
-101 98 0
100 101 -98 0
8 22 -102 0
-8 22 102 0
8 -22 102 0
-8 -22 -102 0
102 98 -70 0
-102 98 70 0
102 -98 70 0
-102 -98 -70 0
98 -103 0
102 -103 0
-98 -102 103 0
22 -104 0
8 -104 0
-22 -8 104 0
-103 89 0
-104 89 0
103 104 -89 0
91 -105 0
95 -105 0
99 -105 0
102 -105 0
-91 -95 -99 -102 105 0
104 -106 0
-104 106 0
9 23 -135 0
-9 23 135 0
9 -23 135 0
-9 -23 -135 0
135 44 -125 0
-135 44 125 0
135 -44 125 0
-135 -44 -125 0
44 -136 0
135 -136 0
-44 -135 136 0
23 -137 0
9 -137 0
-23 -9 137 0
-136 134 0
-137 134 0
136 137 -134 0
10 24 -139 0
-10 24 139 0
10 -24 139 0
-10 -24 -139 0
139 134 -126 0
-139 134 126 0
139 -134 126 0
-139 -134 -126 0
134 -140 0
139 -140 0
-134 -139 140 0
24 -141 0
10 -141 0
-24 -10 141 0
-140 138 0
-141 138 0
140 141 -138 0
11 25 -143 0
-11 25 143 0
11 -25 143 0
-11 -25 -143 0
143 138 -127 0
-143 138 127 0
143 -138 127 0
-143 -138 -127 0
138 -144 0
143 -144 0
-138 -143 144 0
25 -145 0
11 -145 0
-25 -11 145 0
-144 142 0
-145 142 0
144 145 -142 0
12 26 -146 0
-12 26 146 0
12 -26 146 0
-12 -26 -146 0
146 142 -128 0
-146 142 128 0
146 -142 128 0
-146 -142 -128 0
142 -147 0
146 -147 0
-142 -146 147 0
26 -148 0
12 -148 0
-26 -12 148 0
-147 133 0
-148 133 0
147 148 -133 0
135 -149 0
139 -149 0
143 -149 0
146 -149 0
-135 -139 -143 -146 149 0
148 -150 0
-148 150 0
9 23 -153 0
-9 23 153 0
9 -23 153 0
-9 -23 -153 0
153 62 -129 0
-153 62 129 0
153 -62 129 0
-153 -62 -129 0
62 -154 0
153 -154 0
-62 -153 154 0
23 -155 0
9 -155 0
-23 -9 155 0
-154 152 0
-155 152 0
154 155 -152 0
10 24 -157 0
-10 24 157 0
10 -24 157 0
-10 -24 -157 0
157 152 -130 0
-157 152 130 0
157 -152 130 0
-157 -152 -130 0
152 -158 0
157 -158 0
-152 -157 158 0
24 -159 0
10 -159 0
-24 -10 159 0
-158 156 0
-159 156 0
158 159 -156 0
11 25 -161 0
-11 25 161 0
11 -25 161 0
-11 -25 -161 0
161 156 -131 0
-161 156 131 0
161 -156 131 0
-161 -156 -131 0
156 -162 0
161 -162 0
-156 -161 162 0
25 -163 0
11 -163 0
-25 -11 163 0
-162 160 0
-163 160 0
162 163 -160 0
12 26 -164 0
-12 26 164 0
12 -26 164 0
-12 -26 -164 0
164 160 -132 0
-164 160 132 0
164 -160 132 0
-164 -160 -132 0
160 -165 0
164 -165 0
-160 -164 165 0
26 -166 0
12 -166 0
-26 -12 166 0
-165 151 0
-166 151 0
165 166 -151 0
153 -167 0
157 -167 0
161 -167 0
164 -167 0
-153 -157 -161 -164 167 0
166 -168 0
-166 168 0
13 27 -193 0
-13 27 193 0
13 -27 193 0
-13 -27 -193 0
193 44 -187 0
-193 44 187 0
193 -44 187 0
-193 -44 -187 0
44 -194 0
193 -194 0
-44 -193 194 0
27 -195 0
13 -195 0
-27 -13 195 0
-194 192 0
-195 192 0
194 195 -192 0
14 28 -196 0
-14 28 196 0
14 -28 196 0
-14 -28 -196 0
196 192 -188 0
-196 192 188 0
196 -192 188 0
-196 -192 -188 0
192 -197 0
196 -197 0
-192 -196 197 0
28 -198 0
14 -198 0
-28 -14 198 0
-197 191 0
-198 191 0
197 198 -191 0
193 -199 0
196 -199 0
-193 -196 199 0
198 -200 0
-198 200 0
13 27 -203 0
-13 27 203 0
13 -27 203 0
-13 -27 -203 0
203 62 -189 0
-203 62 189 0
203 -62 189 0
-203 -62 -189 0
62 -204 0
203 -204 0
-62 -203 204 0
27 -205 0
13 -205 0
-27 -13 205 0
-204 202 0
-205 202 0
204 205 -202 0
14 28 -206 0
-14 28 206 0
14 -28 206 0
-14 -28 -206 0
206 202 -190 0
-206 202 190 0
206 -202 190 0
-206 -202 -190 0
202 -207 0
206 -207 0
-202 -206 207 0
28 -208 0
14 -208 0
-28 -14 208 0
-207 201 0
-208 201 0
207 208 -201 0
203 -209 0
206 -209 0
-203 -206 209 0
208 -210 0
-208 210 0
46 108 0
-46 -108 0
108 -109 0
63 -109 0
-108 -63 109 0
46 -110 0
67 -110 0
-46 -67 110 0
-109 33 0
-110 33 0
109 110 -33 0
46 111 0
-46 -111 0
111 -112 0
64 -112 0
-111 -64 112 0
46 -113 0
68 -113 0
-46 -68 113 0
-112 34 0
-113 34 0
112 113 -34 0
46 114 0
-46 -114 0
114 -115 0
65 -115 0
-114 -65 115 0
46 -116 0
69 -116 0
-46 -69 116 0
-115 35 0
-116 35 0
115 116 -35 0
46 117 0
-46 -117 0
117 -118 0
66 -118 0
-117 -66 118 0
46 -119 0
70 -119 0
-46 -70 119 0
-118 36 0
-119 36 0
118 119 -36 0
46 120 0
-46 -120 0
120 -121 0
71 -121 0
-120 -71 121 0
46 -122 0
89 -122 0
-46 -89 122 0
-121 107 0
-122 107 0
121 122 -107 0
46 -123 0
105 -123 0
-46 -105 123 0
-123 124 0
-107 124 0
123 107 -124 0
124 170 0
-124 -170 0
170 -171 0
125 -171 0
-170 -125 171 0
124 -172 0
129 -172 0
-124 -129 172 0
-171 37 0
-172 37 0
171 172 -37 0
124 173 0
-124 -173 0
173 -174 0
126 -174 0
-173 -126 174 0
124 -175 0
130 -175 0
-124 -130 175 0
-174 38 0
-175 38 0
174 175 -38 0
124 176 0
-124 -176 0
176 -177 0
127 -177 0
-176 -127 177 0
124 -178 0
131 -178 0
-124 -131 178 0
-177 39 0
-178 39 0
177 178 -39 0
124 179 0
-124 -179 0
179 -180 0
128 -180 0
-179 -128 180 0
124 -181 0
132 -181 0
-124 -132 181 0
-180 40 0
-181 40 0
180 181 -40 0
124 182 0
-124 -182 0
182 -183 0
133 -183 0
-182 -133 183 0
124 -184 0
151 -184 0
-124 -151 184 0
-183 169 0
-184 169 0
183 184 -169 0
124 -185 0
167 -185 0
-124 -167 185 0
-185 186 0
-169 186 0
185 169 -186 0
186 212 0
-186 -212 0
212 -213 0
187 -213 0
-212 -187 213 0
186 -214 0
189 -214 0
-186 -189 214 0
-213 41 0
-214 41 0
213 214 -41 0
186 215 0
-186 -215 0
215 -216 0
188 -216 0
-215 -188 216 0
186 -217 0
190 -217 0
-186 -190 217 0
-216 42 0
-217 42 0
216 217 -42 0
186 218 0
-186 -218 0
218 -219 0
191 -219 0
-218 -191 219 0
186 -220 0
201 -220 0
-186 -201 220 0
-219 211 0
-220 211 0
219 220 -211 0
186 -221 0
209 -221 0
-186 -209 221 0
-221 222 0
-211 222 0
221 211 -222 0
222 -43 0
-222 43 0
